FOS = Qпредел/QvonMises = 3*10^7/(2,4*10^7) = 1,25